19,5	0,0	19,9	16,7	0,0	0,0	0,0	0,0	0,0	19,8
11,3	8,4	0,0	19,1	6,5	0,0	0,0	6,8	0,0	0,0
0,0	0,0	17,3	0,0	5,7	12,5	0,0	0,0	5,2	0,0
17,6	0,0	16,9	0,0	0,0	0,0	9,0	0,0	0,0	0,0
0,0	10,2	0,0	7,5	17,9	0,0	0,0	11,3	0,0	0,0
0,0	8,6	13,4	0,0	15,4	17,3	0,0	0,0	12,1	0,0
0,0	16,2	0,0	8,0	0,0	0,0	16,0	0,0	0,0	18,0
14,4	0,0	18,1	0,0	0,0	0,0	0,0	0,0	0,0	11,9
0,0	6,9	0,0	10,6	14,4	0,0	0,0	10,6	0,0	0,0
0,0	0,0	12,0	0,0	0,0	12,0	14,1	0,0	0,0	12,1
									
3,3	3,5	4,0	3,2	4,1	3,2	3,0	4,9	4,2	2,9
